(set-logic ALL)
(declare-fun var0 () String)
(assert (str.in_re var0 (re.++ (re.union (re.+ (str.to_re "000")) (re.+ (str.to_re "111"))) (re.++ (re.+ (re.union (str.to_re "2") (str.to_re "33"))) (re.++ (re.+ (re.* (str.to_re "4"))) (re.++ (re.union (re.union (str.to_re "555") (str.to_re "66")) (re.union (str.to_re "77") (str.to_re "88"))) (re.++ (re.+ (re.+ (str.to_re "9"))) (re.++ (re.union (re.* (str.to_re "aa")) (re.* (str.to_re "bb"))) (re.++ (re.union (re.* (str.to_re "c")) (re.* (str.to_re "dd"))) (re.++ (re.* (re.* (str.to_re "eee"))) (re.++ (re.union (re.+ (str.to_re "f")) (re.+ (str.to_re "ggg"))) (re.++ (re.union (re.* (str.to_re "hh")) (re.* (str.to_re "ii"))) (re.++ (re.union (re.union (str.to_re "j") (str.to_re "kk")) (re.union (str.to_re "l") (str.to_re "m"))) (re.++ (re.union (re.union (str.to_re "nn") (str.to_re "ooo")) (re.union (str.to_re "ppp") (str.to_re "qqq"))) (re.++ (re.union (re.+ (str.to_re "rrr")) (re.+ (str.to_re "s"))) (re.++ (re.* (re.union (str.to_re "t") (str.to_re "uu"))) (re.++ (re.+ (re.* (str.to_re "v"))) (re.++ (re.+ (re.+ (str.to_re "w"))) (re.* (re.union (str.to_re "xxx") (str.to_re "y")))))))))))))))))))))
(check-sat)